### Initialization
atom_style      full
units           real

pair_style      lj/cut/coul/long 12.0 12.0
pair_modify     mix arithmetic
#pair_modify    tail yes
kspace_style    pppm 1e-4
bond_style      harmonic
angle_style     harmonic
dihedral_style  fourier
improper_style  cvff
special_bonds   amber

read_data       amorphous_models/amor_gaff2.lmps

neighbor        2.0 bin
neigh_modify    delay 0 every 1 check yes

thermo_style    custom step temp density vol press ke pe ebond evdwl ecoul elong
thermo          1000
timestep        1


### Minimization
min_style       cg
minimize        1.0e-6 1.0e-8 100000 10000000


### Reset after minimization
velocity        all create 300.0 4928459 rot yes dist gaussian
reset_timestep  0


### 21-Step Equilibration (total 2010ps;2010000fs)
dump            dump1 all custom 10000 equil.lammpstrj id mol type q xs ys zs ix iy iz
dump_modify     dump1 first yes
restart         2010000 21step.restart

fix             step1 all nvt temp 600.0 600.0 100.0
run             200000
unfix           step1

fix             step2 all nvt temp 300.0 300.0 100.0
run             50000
unfix           step2

fix             step3 all npt temp 300.0 300.0 100.0 iso 986.923 986.923 1000.0
run             50000
unfix           step3

fix             step4 all nvt temp 600.0 600.0 100.0
run             200000
unfix           step4

fix             step5 all nvt temp 300.0 300.0 100.0
run             100000
unfix           step5

fix             step6 all npt temp 300.0 300.0 100.0 iso 29607.7 29607.7 1000.0
run             50000
unfix           step6

fix             step7 all nvt temp 600.0 600.0 100.0
run             200000
unfix           step7

fix             step8 all nvt temp 300.0 300.0 100.0
run             100000
unfix           step8

fix             step9 all npt temp 300.0 300.0 100.0 iso 49346.163 49346.163 1000.0
run             50000
unfix           step9

fix             step10 all nvt temp 600.0 600.0 100.0
run             50000
unfix           step10

fix             step11 all nvt temp 300.0 300.0 100.0
run             100000
unfix           step11

fix             step12 all npt temp 300.0 300.0 100.0 iso 24673.082 24673.082 1000.0
run             5000
unfix           step12

fix             step13 all nvt temp 600.0 600.0 100.0
run             5000
unfix           step13

fix             step14 all nvt temp 300.0 300.0 100.0
run             10000
unfix           step14

fix             step15 all npt temp 300.0 300.0 100.0 iso 4934.6163 4934.6163 1000.0
run             5000
unfix           step15

fix             step16 all nvt temp 600.0 600.0 100.0
run             5000
unfix           step16

fix             step17 all nvt temp 300.0 300.0 100.0
run             10000
unfix           step17

fix             step18 all npt temp 300.0 300.0 100.0 iso 493.46163 493.46163 1000.0
run             5000
unfix           step18

fix             step19 all nvt temp 600.0 600.0 100.0
run             5000
unfix           step19

fix             step20 all nvt temp 300.0 300.0 100.0
run             10000
unfix           step20

fix             step21 all npt temp 300.0 300.0 100.0 iso 1.0 1.0 1000.0
run             800000
unfix           step21
