### Initialization
atom_style      full
units           real

pair_style      lj/cut/coul/long 12.0 12.0
pair_modify     mix arithmetic
kspace_style    pppm 1e-4
bond_style      harmonic
angle_style     harmonic
dihedral_style  fourier
improper_style  cvff
special_bonds   amber

read_restart    21step.restart.2010000

neighbor        2.0 bin
neigh_modify    delay 0 every 1 check yes

thermo_style    custom step temp density vol press ke pe ebond evdwl ecoul elong
thermo          1000
timestep        1


### Additional NPT Equilibration
reset_timestep	0
restart         10000000 NPT.restart
dump            dump1 all custom 10000 equil_npt_gas.lammpstrj id mol type mass q xs ys zs ix iy iz
dump            dIMAGE all image 10000000 image.*.jpg type type
dump_modify     dump1 first yes
fix             fNPT all npt temp 300.0 300.0 100.0 iso 1.0 1.0 100.0

run             10000000

unfix           fNPT
undump          dump1
undump          dIMAGE


### Production NVT
reset_timestep	0
restart         100000000 NVT.restart
fix             fNVT all nvt temp 300.0 300.0 100.0
dump            dump2 all custom 10000 production_long.lammpstrj id mol type mass q xs ys zs ix iy iz
dump            dIMAGE all image 200000000 image.*.jpg type type
dump_modify     dump2 first yes
run             200000000
