# LAMMPS input file generated by PMD package

### Initialization
atom_style      full
units           real

pair_style      lj/cut/coul/long 12.0 12.0
pair_modify     mix arithmetic
kspace_style    pppm 1e-4
bond_style      harmonic
angle_style     harmonic
dihedral_style  fourier
improper_style  cvff
special_bonds   amber

read_data       data.lmps

neighbor        2.0 bin
neigh_modify    delay 0 every 1 check yes

thermo_style    custom step temp density vol press ke pe ebond evdwl ecoul elong
thermo          1000
timestep        1


### Minimization
min_style       cg
minimize        1e-06 1e-08 100000 10000000
